p cnf 50 50
30 -44 19 0
1 22 36 0
-22 -5 36 0
16 -50 9 0
18 -44 9 0
-4 -47 25 0
49 46 -26 0
39 -36 -38 0
-29 -24 -18 0
-16 18 45 0
8 15 -13 0
16 -21 -15 0
-11 -31 -4 0
37 -8 -2 0
50 -36 29 0
-39 28 -25 0
49 -41 -36 0
-7 33 32 0
-25 -13 41 0
-15 -25 -23 0
5 18 -43 0
-10 -4 12 0
-8 50 -33 0
24 49 28 0
11 -9 -32 0
-4 29 24 0
-41 21 50 0
-14 8 21 0
-42 -29 -8 0
41 -30 -4 0
-50 39 9 0
-45 -19 -1 0
39 49 -14 0
-19 -15 43 0
31 17 -44 0
24 -37 -30 0
-9 -33 -26 0
8 48 -5 0
-37 44 19 0
-25 33 -2 0
-45 -6 4 0
-5 3 23 0
-35 14 -23 0
31 4 -41 0
28 -47 -29 0
-42 -50 -7 0
1 18 -44 0
-41 37 21 0
-27 -32 -38 0
-20 -13 14 0
